model2/model2.lp
max: 0.0x_0_0 + 0.5718x_0_1 + 0.5401x_0_2 + 0.51x_1_0 + 0.4232x_1_1 + 0.4377x_1_2 + 0.4877x_2_0 + 0.5002x_2_1 + 0.5021x_2_2 + 0.0x_3_0 + 0.4309x_3_1 + 0.4898x_3_2 + 0.5127x_4_0 + 0.4164x_4_1 + 0.4365x_4_2 + 0.0x_5_0 + 0.5314x_5_1 + 0.4831x_5_2 + 0.4739x_6_0 + 0.4662x_6_1 + 0.4688x_6_2 + 0.4482x_7_0 + 0.4511x_7_1 + 0.4224x_7_2 + 0.4945x_8_0 + 0.478x_8_1 + 0.4368x_8_2 + 0.579x_9_0 + 0.5186x_9_1 + 0.5161x_9_2 + 0.5263x_10_0 + 0.4882x_10_1 + 0.4596x_10_2 + 0.4952x_11_0 + 0.5041x_11_1 + 0.4509x_11_2 + 0.0x_12_0 + 0.4844x_12_1 + 0.446x_12_2 + 0.4724x_13_0 + 0.411x_13_1 + 0.355x_13_2 + 0.0x_14_0 + 0.5499x_14_1 + 0.5063x_14_2 + 0.0x_15_0 + 0.5201x_15_1 + 0.5285x_15_2 + 0.0x_16_0 + 0.466x_16_1 + 0.4415x_16_2 + 0.5336x_17_0 + 0.4742x_17_1 + 0.4927x_17_2 + 0.5213x_18_0 + 0.5103x_18_1 + 0.4804x_18_2 + 0.0x_19_0 + 0.5478x_19_1 + 0.5455x_19_2 + 0.0x_20_0 + 0.5051x_20_1 + 0.4589x_20_2 + 0.4761x_21_0 + 0.495x_21_1 + 0.495x_21_2 + 0.5049x_22_0 + 0.516x_22_1 + 0.5102x_22_2 + 0.4843x_23_0 + 0.4633x_23_1 + 0.4402x_23_2 + 0.5156x_24_0 + 0.5033x_24_1 + 0.5029x_24_2 + 0.0x_25_0 + 0.5087x_25_1 + 0.4424x_25_2 + 0.5159x_26_0 + 0.4862x_26_1 + 0.4667x_26_2 + 0.5431x_27_0 + 0.506x_27_1 + 0.5409x_27_2 + 0.4853x_28_0 + 0.4653x_28_1 + 0.443x_28_2 + 0.5211x_29_0 + 0.5141x_29_1 + 0.5047x_29_2 + 0.5438x_30_0 + 0.5264x_30_1 + 0.5267x_30_2 + 0.4996x_31_0 + 0.4136x_31_1 + 0.4299x_31_2 + 0.4538x_32_0 + 0.4806x_32_1 + 0.4035x_32_2 + 0.0x_33_0 + 0.524x_33_1 + 0.0x_33_2 + 0.0x_34_0 + 0.5129x_34_1 + 0.4865x_34_2 + 0.4723x_35_0 + 0.4648x_35_1 + 0.4637x_35_2 + 0.4969x_36_0 + 0.4677x_36_1 + 0.4904x_36_2 + 0.4818x_37_0 + 0.4577x_37_1 + 0.0x_37_2 + 0.4506x_38_0 + 0.4175x_38_1 + 0.3963x_38_2 + 0.5257x_39_0 + 0.528x_39_1 + 0.5197x_39_2 + 0.5271x_40_0 + 0.4787x_40_1 + 0.5052x_40_2 + 0.0x_41_0 + 0.4979x_41_1 + 0.4878x_41_2 + 0.4859x_42_0 + 0.475x_42_1 + 0.4714x_42_2 + 0.5027x_43_0 + 0.4855x_43_1 + 0.4587x_43_2 + 0.5072x_44_0 + 0.4611x_44_1 + 0.4494x_44_2 + 0.5266x_45_0 + 0.5508x_45_1 + 0.5453x_45_2 + 0.0x_46_0 + 0.4787x_46_1 + 0.4948x_46_2 + 0.4746x_47_0 + 0.4517x_47_1 + 0.4493x_47_2 + 0.4794x_48_0 + 0.4705x_48_1 + 0.4753x_48_2 + 0.4999x_49_0 + 0.4695x_49_1 + 0.4416x_49_2 + 0.5533x_50_0 + 0.5162x_50_1 + 0.5418x_50_2 + 0.0x_51_0 + 0.4892x_51_1 + 0.5067x_51_2 + 0.4762x_52_0 + 0.4723x_52_1 + 0.4236x_52_2 + 0.5151x_53_0 + 0.4948x_53_1 + 0.4924x_53_2 + 0.5167x_54_0 + 0.3909x_54_1 + 0.4289x_54_2 + 0.5231x_55_0 + 0.5146x_55_1 + 0.4931x_55_2 + 0.5071x_56_0 + 0.4676x_56_1 + 0.4616x_56_2 + 0.4821x_57_0 + 0.4497x_57_1 + 0.4742x_57_2 + 0.4955x_58_0 + 0.443x_58_1 + 0.4429x_58_2 + 0.0x_59_0 + 0.4447x_59_1 + 0.4111x_59_2 + 0.5709x_60_0 + 0.5734x_60_1 + 0.5468x_60_2 + 0.514x_61_0 + 0.5132x_61_1 + 0.4802x_61_2 + 0.5042x_62_0 + 0.5082x_62_1 + 0.4954x_62_2 + 0.5373x_63_0 + 0.5308x_63_1 + 0.522x_63_2 + 0.0x_64_0 + 0.5881x_64_1 + 0.5731x_64_2 + 0.4368x_65_0 + 0.4281x_65_1 + 0.4419x_65_2 + 0.5003x_66_0 + 0.4616x_66_1 + 0.4859x_66_2 + 0.4229x_67_0 + 0.4629x_67_1 + 0.3761x_67_2 + 0.5552x_68_0 + 0.4899x_68_1 + 0.5142x_68_2 + 0.5116x_69_0 + 0.4724x_69_1 + 0.4806x_69_2 + 0.5173x_70_0 + 0.5081x_70_1 + 0.5031x_70_2 + 0.4422x_71_0 + 0.4414x_71_1 + 0.0x_71_2 + 0.5216x_72_0 + 0.5346x_72_1 + 0.5091x_72_2 + 0.4991x_73_0 + 0.4899x_73_1 + 0.4786x_73_2 + 0.4461x_74_0 + 0.4391x_74_1 + 0.4178x_74_2 + 0.4662x_75_0 + 0.4641x_75_1 + 0.4388x_75_2 + 0.542x_76_0 + 0.5459x_76_1 + 0.5169x_76_2 + 0.461x_77_0 + 0.4645x_77_1 + 0.4675x_77_2 + 0.508x_78_0 + 0.4988x_78_1 + 0.4783x_78_2 + 0.4801x_79_0 + 0.4626x_79_1 + 0.4721x_79_2 + 0.4906x_80_0 + 0.0x_80_1 + 0.0x_80_2 + 0.534x_81_0 + 0.5214x_81_1 + 0.5249x_81_2 + 0.5236x_82_0 + 0.5369x_82_1 + 0.53x_82_2 + 0.5056x_83_0 + 0.484x_83_1 + 0.4768x_83_2 + 0.0x_84_0 + 0.518x_84_1 + 0.4882x_84_2 + 0.0x_85_0 + 0.4659x_85_1 + 0.4926x_85_2 + 0.5465x_86_0 + 0.4962x_86_1 + 0.4916x_86_2 + 0.0x_87_0 + 0.5273x_87_1 + 0.5591x_87_2 + 0.5682x_88_0 + 0.5575x_88_1 + 0.5293x_88_2 + 0.4924x_89_0 + 0.0x_89_1 + 0.0x_89_2 + 0.0x_90_0 + 0.5107x_90_1 + 0.5347x_90_2 + 0.4567x_91_0 + 0.4905x_91_1 + 0.4567x_91_2 + 0.4893x_92_0 + 0.0x_92_1 + 0.4154x_92_2 + 0.0x_93_0 + 0.4833x_93_1 + 0.5079x_93_2 + 0.0x_94_0 + 0.5224x_94_1 + 0.4763x_94_2 + 0.4945x_95_0 + 0.4793x_95_1 + 0.4507x_95_2 + 0.4985x_96_0 + 0.0x_96_1 + 0.0x_96_2 + 0.4852x_97_0 + 0.4384x_97_1 + 0.4228x_97_2 + 0.0x_98_0 + 0.5404x_98_1 + 0.5237x_98_2 + 0.515x_99_0 + 0.4852x_99_1 + 0.512x_99_2 + 0.4717x_100_0 + 0.4593x_100_1 + 0.4336x_100_2 + 0.0x_101_0 + 0.5682x_101_1 + 0.4978x_101_2 + 0.0x_102_0 + 0.5348x_102_1 + 0.5047x_102_2 + 0.5715x_103_0 + 0.5519x_103_1 + 0.5417x_103_2 + 0.541x_104_0 + 0.5285x_104_1 + 0.5232x_104_2 + 0.5297x_105_0 + 0.5295x_105_1 + 0.5141x_105_2 + 0.5252x_106_0 + 0.5001x_106_1 + 0.474x_106_2 + 0.5815x_107_0 + 0.4932x_107_1 + 0.4898x_107_2 + 0.529x_108_0 + 0.5465x_108_1 + 0.5369x_108_2 + 0.5164x_109_0 + 0.5156x_109_1 + 0.504x_109_2 + 0.4679x_110_0 + 0.4764x_110_1 + 0.4437x_110_2 + 0.4953x_111_0 + 0.4802x_111_1 + 0.4909x_111_2 + 0.0x_112_0 + 0.5129x_112_1 + 0.5116x_112_2 + 0.0x_113_0 + 0.548x_113_1 + 0.5547x_113_2 + 0.5762x_114_0 + 0.5541x_114_1 + 0.5364x_114_2;
x_0_0 + x_1_0 + x_2_0 + x_3_0 + x_4_0 + x_5_0 + x_6_0 + x_7_0 + x_8_0 + x_9_0 + x_10_0 + x_11_0 + x_12_0 + x_13_0 + x_14_0 + x_15_0 + x_16_0 + x_17_0 + x_18_0 + x_19_0 + x_20_0 + x_21_0 + x_22_0 + x_23_0 + x_24_0 + x_25_0 + x_26_0 + x_27_0 + x_28_0 + x_29_0 + x_30_0 + x_31_0 + x_32_0 + x_33_0 + x_34_0 + x_35_0 + x_36_0 + x_37_0 + x_38_0 + x_39_0 + x_40_0 + x_41_0 + x_42_0 + x_43_0 + x_44_0 + x_45_0 + x_46_0 + x_47_0 + x_48_0 + x_49_0 + x_50_0 + x_51_0 + x_52_0 + x_53_0 + x_54_0 + x_55_0 + x_56_0 + x_57_0 + x_58_0 + x_59_0 + x_60_0 + x_61_0 + x_62_0 + x_63_0 + x_64_0 + x_65_0 + x_66_0 + x_67_0 + x_68_0 + x_69_0 + x_70_0 + x_71_0 + x_72_0 + x_73_0 + x_74_0 + x_75_0 + x_76_0 + x_77_0 + x_78_0 + x_79_0 + x_80_0 + x_81_0 + x_82_0 + x_83_0 + x_84_0 + x_85_0 + x_86_0 + x_87_0 + x_88_0 + x_89_0 + x_90_0 + x_91_0 + x_92_0 + x_93_0 + x_94_0 + x_95_0 + x_96_0 + x_97_0 + x_98_0 + x_99_0 + x_100_0 + x_101_0 + x_102_0 + x_103_0 + x_104_0 + x_105_0 + x_106_0 + x_107_0 + x_108_0 + x_109_0 + x_110_0 + x_111_0 + x_112_0 + x_113_0 + x_114_0 + x_0_1 + x_1_1 + x_2_1 + x_3_1 + x_4_1 + x_5_1 + x_6_1 + x_7_1 + x_8_1 + x_9_1 + x_10_1 + x_11_1 + x_12_1 + x_13_1 + x_14_1 + x_15_1 + x_16_1 + x_17_1 + x_18_1 + x_19_1 + x_20_1 + x_21_1 + x_22_1 + x_23_1 + x_24_1 + x_25_1 + x_26_1 + x_27_1 + x_28_1 + x_29_1 + x_30_1 + x_31_1 + x_32_1 + x_33_1 + x_34_1 + x_35_1 + x_36_1 + x_37_1 + x_38_1 + x_39_1 + x_40_1 + x_41_1 + x_42_1 + x_43_1 + x_44_1 + x_45_1 + x_46_1 + x_47_1 + x_48_1 + x_49_1 + x_50_1 + x_51_1 + x_52_1 + x_53_1 + x_54_1 + x_55_1 + x_56_1 + x_57_1 + x_58_1 + x_59_1 + x_60_1 + x_61_1 + x_62_1 + x_63_1 + x_64_1 + x_65_1 + x_66_1 + x_67_1 + x_68_1 + x_69_1 + x_70_1 + x_71_1 + x_72_1 + x_73_1 + x_74_1 + x_75_1 + x_76_1 + x_77_1 + x_78_1 + x_79_1 + x_80_1 + x_81_1 + x_82_1 + x_83_1 + x_84_1 + x_85_1 + x_86_1 + x_87_1 + x_88_1 + x_89_1 + x_90_1 + x_91_1 + x_92_1 + x_93_1 + x_94_1 + x_95_1 + x_96_1 + x_97_1 + x_98_1 + x_99_1 + x_100_1 + x_101_1 + x_102_1 + x_103_1 + x_104_1 + x_105_1 + x_106_1 + x_107_1 + x_108_1 + x_109_1 + x_110_1 + x_111_1 + x_112_1 + x_113_1 + x_114_1 + x_0_2 + x_1_2 + x_2_2 + x_3_2 + x_4_2 + x_5_2 + x_6_2 + x_7_2 + x_8_2 + x_9_2 + x_10_2 + x_11_2 + x_12_2 + x_13_2 + x_14_2 + x_15_2 + x_16_2 + x_17_2 + x_18_2 + x_19_2 + x_20_2 + x_21_2 + x_22_2 + x_23_2 + x_24_2 + x_25_2 + x_26_2 + x_27_2 + x_28_2 + x_29_2 + x_30_2 + x_31_2 + x_32_2 + x_33_2 + x_34_2 + x_35_2 + x_36_2 + x_37_2 + x_38_2 + x_39_2 + x_40_2 + x_41_2 + x_42_2 + x_43_2 + x_44_2 + x_45_2 + x_46_2 + x_47_2 + x_48_2 + x_49_2 + x_50_2 + x_51_2 + x_52_2 + x_53_2 + x_54_2 + x_55_2 + x_56_2 + x_57_2 + x_58_2 + x_59_2 + x_60_2 + x_61_2 + x_62_2 + x_63_2 + x_64_2 + x_65_2 + x_66_2 + x_67_2 + x_68_2 + x_69_2 + x_70_2 + x_71_2 + x_72_2 + x_73_2 + x_74_2 + x_75_2 + x_76_2 + x_77_2 + x_78_2 + x_79_2 + x_80_2 + x_81_2 + x_82_2 + x_83_2 + x_84_2 + x_85_2 + x_86_2 + x_87_2 + x_88_2 + x_89_2 + x_90_2 + x_91_2 + x_92_2 + x_93_2 + x_94_2 + x_95_2 + x_96_2 + x_97_2 + x_98_2 + x_99_2 + x_100_2 + x_101_2 + x_102_2 + x_103_2 + x_104_2 + x_105_2 + x_106_2 + x_107_2 + x_108_2 + x_109_2 + x_110_2 + x_111_2 + x_112_2 + x_113_2 + x_114_2 = 5;
x_0_0 + x_0_1 + x_0_2 <= 1;
x_1_0 + x_1_1 + x_1_2 <= 1;
x_2_0 + x_2_1 + x_2_2 <= 1;
x_3_0 + x_3_1 + x_3_2 <= 1;
x_4_0 + x_4_1 + x_4_2 <= 1;
x_5_0 + x_5_1 + x_5_2 <= 1;
x_6_0 + x_6_1 + x_6_2 <= 1;
x_7_0 + x_7_1 + x_7_2 <= 1;
x_8_0 + x_8_1 + x_8_2 <= 1;
x_9_0 + x_9_1 + x_9_2 <= 1;
x_10_0 + x_10_1 + x_10_2 <= 1;
x_11_0 + x_11_1 + x_11_2 <= 1;
x_12_0 + x_12_1 + x_12_2 <= 1;
x_13_0 + x_13_1 + x_13_2 <= 1;
x_14_0 + x_14_1 + x_14_2 <= 1;
x_15_0 + x_15_1 + x_15_2 <= 1;
x_16_0 + x_16_1 + x_16_2 <= 1;
x_17_0 + x_17_1 + x_17_2 <= 1;
x_18_0 + x_18_1 + x_18_2 <= 1;
x_19_0 + x_19_1 + x_19_2 <= 1;
x_20_0 + x_20_1 + x_20_2 <= 1;
x_21_0 + x_21_1 + x_21_2 <= 1;
x_22_0 + x_22_1 + x_22_2 <= 1;
x_23_0 + x_23_1 + x_23_2 <= 1;
x_24_0 + x_24_1 + x_24_2 <= 1;
x_25_0 + x_25_1 + x_25_2 <= 1;
x_26_0 + x_26_1 + x_26_2 <= 1;
x_27_0 + x_27_1 + x_27_2 <= 1;
x_28_0 + x_28_1 + x_28_2 <= 1;
x_29_0 + x_29_1 + x_29_2 <= 1;
x_30_0 + x_30_1 + x_30_2 <= 1;
x_31_0 + x_31_1 + x_31_2 <= 1;
x_32_0 + x_32_1 + x_32_2 <= 1;
x_33_0 + x_33_1 + x_33_2 <= 1;
x_34_0 + x_34_1 + x_34_2 <= 1;
x_35_0 + x_35_1 + x_35_2 <= 1;
x_36_0 + x_36_1 + x_36_2 <= 1;
x_37_0 + x_37_1 + x_37_2 <= 1;
x_38_0 + x_38_1 + x_38_2 <= 1;
x_39_0 + x_39_1 + x_39_2 <= 1;
x_40_0 + x_40_1 + x_40_2 <= 1;
x_41_0 + x_41_1 + x_41_2 <= 1;
x_42_0 + x_42_1 + x_42_2 <= 1;
x_43_0 + x_43_1 + x_43_2 <= 1;
x_44_0 + x_44_1 + x_44_2 <= 1;
x_45_0 + x_45_1 + x_45_2 <= 1;
x_46_0 + x_46_1 + x_46_2 <= 1;
x_47_0 + x_47_1 + x_47_2 <= 1;
x_48_0 + x_48_1 + x_48_2 <= 1;
x_49_0 + x_49_1 + x_49_2 <= 1;
x_50_0 + x_50_1 + x_50_2 <= 1;
x_51_0 + x_51_1 + x_51_2 <= 1;
x_52_0 + x_52_1 + x_52_2 <= 1;
x_53_0 + x_53_1 + x_53_2 <= 1;
x_54_0 + x_54_1 + x_54_2 <= 1;
x_55_0 + x_55_1 + x_55_2 <= 1;
x_56_0 + x_56_1 + x_56_2 <= 1;
x_57_0 + x_57_1 + x_57_2 <= 1;
x_58_0 + x_58_1 + x_58_2 <= 1;
x_59_0 + x_59_1 + x_59_2 <= 1;
x_60_0 + x_60_1 + x_60_2 <= 1;
x_61_0 + x_61_1 + x_61_2 <= 1;
x_62_0 + x_62_1 + x_62_2 <= 1;
x_63_0 + x_63_1 + x_63_2 <= 1;
x_64_0 + x_64_1 + x_64_2 <= 1;
x_65_0 + x_65_1 + x_65_2 <= 1;
x_66_0 + x_66_1 + x_66_2 <= 1;
x_67_0 + x_67_1 + x_67_2 <= 1;
x_68_0 + x_68_1 + x_68_2 <= 1;
x_69_0 + x_69_1 + x_69_2 <= 1;
x_70_0 + x_70_1 + x_70_2 <= 1;
x_71_0 + x_71_1 + x_71_2 <= 1;
x_72_0 + x_72_1 + x_72_2 <= 1;
x_73_0 + x_73_1 + x_73_2 <= 1;
x_74_0 + x_74_1 + x_74_2 <= 1;
x_75_0 + x_75_1 + x_75_2 <= 1;
x_76_0 + x_76_1 + x_76_2 <= 1;
x_77_0 + x_77_1 + x_77_2 <= 1;
x_78_0 + x_78_1 + x_78_2 <= 1;
x_79_0 + x_79_1 + x_79_2 <= 1;
x_80_0 + x_80_1 + x_80_2 <= 1;
x_81_0 + x_81_1 + x_81_2 <= 1;
x_82_0 + x_82_1 + x_82_2 <= 1;
x_83_0 + x_83_1 + x_83_2 <= 1;
x_84_0 + x_84_1 + x_84_2 <= 1;
x_85_0 + x_85_1 + x_85_2 <= 1;
x_86_0 + x_86_1 + x_86_2 <= 1;
x_87_0 + x_87_1 + x_87_2 <= 1;
x_88_0 + x_88_1 + x_88_2 <= 1;
x_89_0 + x_89_1 + x_89_2 <= 1;
x_90_0 + x_90_1 + x_90_2 <= 1;
x_91_0 + x_91_1 + x_91_2 <= 1;
x_92_0 + x_92_1 + x_92_2 <= 1;
x_93_0 + x_93_1 + x_93_2 <= 1;
x_94_0 + x_94_1 + x_94_2 <= 1;
x_95_0 + x_95_1 + x_95_2 <= 1;
x_96_0 + x_96_1 + x_96_2 <= 1;
x_97_0 + x_97_1 + x_97_2 <= 1;
x_98_0 + x_98_1 + x_98_2 <= 1;
x_99_0 + x_99_1 + x_99_2 <= 1;
x_100_0 + x_100_1 + x_100_2 <= 1;
x_101_0 + x_101_1 + x_101_2 <= 1;
x_102_0 + x_102_1 + x_102_2 <= 1;
x_103_0 + x_103_1 + x_103_2 <= 1;
x_104_0 + x_104_1 + x_104_2 <= 1;
x_105_0 + x_105_1 + x_105_2 <= 1;
x_106_0 + x_106_1 + x_106_2 <= 1;
x_107_0 + x_107_1 + x_107_2 <= 1;
x_108_0 + x_108_1 + x_108_2 <= 1;
x_109_0 + x_109_1 + x_109_2 <= 1;
x_110_0 + x_110_1 + x_110_2 <= 1;
x_111_0 + x_111_1 + x_111_2 <= 1;
x_112_0 + x_112_1 + x_112_2 <= 1;
x_113_0 + x_113_1 + x_113_2 <= 1;
x_114_0 + x_114_1 + x_114_2 <= 1;
x_0_0 + x_1_0 + x_2_0 + x_3_0 + x_4_0 + x_5_0 + x_6_0 + x_7_0 + x_8_0 + x_9_0 + x_10_0 + x_11_0 + x_12_0 + x_13_0 + x_14_0 + x_15_0 + x_16_0 + x_17_0 + x_18_0 + x_19_0 + x_20_0 + x_21_0 + x_22_0 + x_23_0 + x_24_0 + x_25_0 + x_26_0 + x_27_0 + x_28_0 + x_29_0 + x_30_0 + x_31_0 + x_32_0 + x_33_0 + x_34_0 + x_35_0 + x_36_0 + x_37_0 + x_38_0 + x_39_0 + x_40_0 + x_41_0 + x_42_0 + x_43_0 + x_44_0 + x_45_0 + x_46_0 + x_47_0 + x_48_0 + x_49_0 + x_50_0 + x_51_0 + x_52_0 + x_53_0 + x_54_0 + x_55_0 + x_56_0 + x_57_0 + x_58_0 + x_59_0 + x_60_0 + x_61_0 + x_62_0 + x_63_0 + x_64_0 + x_65_0 + x_66_0 + x_67_0 + x_68_0 + x_69_0 + x_70_0 + x_71_0 + x_72_0 + x_73_0 + x_74_0 + x_75_0 + x_76_0 + x_77_0 + x_78_0 + x_79_0 + x_80_0 + x_81_0 + x_82_0 + x_83_0 + x_84_0 + x_85_0 + x_86_0 + x_87_0 + x_88_0 + x_89_0 + x_90_0 + x_91_0 + x_92_0 + x_93_0 + x_94_0 + x_95_0 + x_96_0 + x_97_0 + x_98_0 + x_99_0 + x_100_0 + x_101_0 + x_102_0 + x_103_0 + x_104_0 + x_105_0 + x_106_0 + x_107_0 + x_108_0 + x_109_0 + x_110_0 + x_111_0 + x_112_0 + x_113_0 + x_114_0 = 1;
1 <= x_0_1 + x_1_1 + x_2_1 + x_3_1 + x_4_1 + x_5_1 + x_6_1 + x_7_1 + x_8_1 + x_9_1 + x_10_1 + x_11_1 + x_12_1 + x_13_1 + x_14_1 + x_15_1 + x_16_1 + x_17_1 + x_18_1 + x_19_1 + x_20_1 + x_21_1 + x_22_1 + x_23_1 + x_24_1 + x_25_1 + x_26_1 + x_27_1 + x_28_1 + x_29_1 + x_30_1 + x_31_1 + x_32_1 + x_33_1 + x_34_1 + x_35_1 + x_36_1 + x_37_1 + x_38_1 + x_39_1 + x_40_1 + x_41_1 + x_42_1 + x_43_1 + x_44_1 + x_45_1 + x_46_1 + x_47_1 + x_48_1 + x_49_1 + x_50_1 + x_51_1 + x_52_1 + x_53_1 + x_54_1 + x_55_1 + x_56_1 + x_57_1 + x_58_1 + x_59_1 + x_60_1 + x_61_1 + x_62_1 + x_63_1 + x_64_1 + x_65_1 + x_66_1 + x_67_1 + x_68_1 + x_69_1 + x_70_1 + x_71_1 + x_72_1 + x_73_1 + x_74_1 + x_75_1 + x_76_1 + x_77_1 + x_78_1 + x_79_1 + x_80_1 + x_81_1 + x_82_1 + x_83_1 + x_84_1 + x_85_1 + x_86_1 + x_87_1 + x_88_1 + x_89_1 + x_90_1 + x_91_1 + x_92_1 + x_93_1 + x_94_1 + x_95_1 + x_96_1 + x_97_1 + x_98_1 + x_99_1 + x_100_1 + x_101_1 + x_102_1 + x_103_1 + x_104_1 + x_105_1 + x_106_1 + x_107_1 + x_108_1 + x_109_1 + x_110_1 + x_111_1 + x_112_1 + x_113_1 + x_114_1 <= 2;
2 <= x_0_2 + x_1_2 + x_2_2 + x_3_2 + x_4_2 + x_5_2 + x_6_2 + x_7_2 + x_8_2 + x_9_2 + x_10_2 + x_11_2 + x_12_2 + x_13_2 + x_14_2 + x_15_2 + x_16_2 + x_17_2 + x_18_2 + x_19_2 + x_20_2 + x_21_2 + x_22_2 + x_23_2 + x_24_2 + x_25_2 + x_26_2 + x_27_2 + x_28_2 + x_29_2 + x_30_2 + x_31_2 + x_32_2 + x_33_2 + x_34_2 + x_35_2 + x_36_2 + x_37_2 + x_38_2 + x_39_2 + x_40_2 + x_41_2 + x_42_2 + x_43_2 + x_44_2 + x_45_2 + x_46_2 + x_47_2 + x_48_2 + x_49_2 + x_50_2 + x_51_2 + x_52_2 + x_53_2 + x_54_2 + x_55_2 + x_56_2 + x_57_2 + x_58_2 + x_59_2 + x_60_2 + x_61_2 + x_62_2 + x_63_2 + x_64_2 + x_65_2 + x_66_2 + x_67_2 + x_68_2 + x_69_2 + x_70_2 + x_71_2 + x_72_2 + x_73_2 + x_74_2 + x_75_2 + x_76_2 + x_77_2 + x_78_2 + x_79_2 + x_80_2 + x_81_2 + x_82_2 + x_83_2 + x_84_2 + x_85_2 + x_86_2 + x_87_2 + x_88_2 + x_89_2 + x_90_2 + x_91_2 + x_92_2 + x_93_2 + x_94_2 + x_95_2 + x_96_2 + x_97_2 + x_98_2 + x_99_2 + x_100_2 + x_101_2 + x_102_2 + x_103_2 + x_104_2 + x_105_2 + x_106_2 + x_107_2 + x_108_2 + x_109_2 + x_110_2 + x_111_2 + x_112_2 + x_113_2 + x_114_2 <= 3;
bin x_0_0, x_1_0, x_2_0, x_3_0, x_4_0, x_5_0, x_6_0, x_7_0, x_8_0, x_9_0, x_10_0, x_11_0, x_12_0, x_13_0, x_14_0, x_15_0, x_16_0, x_17_0, x_18_0, x_19_0, x_20_0, x_21_0, x_22_0, x_23_0, x_24_0, x_25_0, x_26_0, x_27_0, x_28_0, x_29_0, x_30_0, x_31_0, x_32_0, x_33_0, x_34_0, x_35_0, x_36_0, x_37_0, x_38_0, x_39_0, x_40_0, x_41_0, x_42_0, x_43_0, x_44_0, x_45_0, x_46_0, x_47_0, x_48_0, x_49_0, x_50_0, x_51_0, x_52_0, x_53_0, x_54_0, x_55_0, x_56_0, x_57_0, x_58_0, x_59_0, x_60_0, x_61_0, x_62_0, x_63_0, x_64_0, x_65_0, x_66_0, x_67_0, x_68_0, x_69_0, x_70_0, x_71_0, x_72_0, x_73_0, x_74_0, x_75_0, x_76_0, x_77_0, x_78_0, x_79_0, x_80_0, x_81_0, x_82_0, x_83_0, x_84_0, x_85_0, x_86_0, x_87_0, x_88_0, x_89_0, x_90_0, x_91_0, x_92_0, x_93_0, x_94_0, x_95_0, x_96_0, x_97_0, x_98_0, x_99_0, x_100_0, x_101_0, x_102_0, x_103_0, x_104_0, x_105_0, x_106_0, x_107_0, x_108_0, x_109_0, x_110_0, x_111_0, x_112_0, x_113_0, x_114_0, x_0_1, x_1_1, x_2_1, x_3_1, x_4_1, x_5_1, x_6_1, x_7_1, x_8_1, x_9_1, x_10_1, x_11_1, x_12_1, x_13_1, x_14_1, x_15_1, x_16_1, x_17_1, x_18_1, x_19_1, x_20_1, x_21_1, x_22_1, x_23_1, x_24_1, x_25_1, x_26_1, x_27_1, x_28_1, x_29_1, x_30_1, x_31_1, x_32_1, x_33_1, x_34_1, x_35_1, x_36_1, x_37_1, x_38_1, x_39_1, x_40_1, x_41_1, x_42_1, x_43_1, x_44_1, x_45_1, x_46_1, x_47_1, x_48_1, x_49_1, x_50_1, x_51_1, x_52_1, x_53_1, x_54_1, x_55_1, x_56_1, x_57_1, x_58_1, x_59_1, x_60_1, x_61_1, x_62_1, x_63_1, x_64_1, x_65_1, x_66_1, x_67_1, x_68_1, x_69_1, x_70_1, x_71_1, x_72_1, x_73_1, x_74_1, x_75_1, x_76_1, x_77_1, x_78_1, x_79_1, x_80_1, x_81_1, x_82_1, x_83_1, x_84_1, x_85_1, x_86_1, x_87_1, x_88_1, x_89_1, x_90_1, x_91_1, x_92_1, x_93_1, x_94_1, x_95_1, x_96_1, x_97_1, x_98_1, x_99_1, x_100_1, x_101_1, x_102_1, x_103_1, x_104_1, x_105_1, x_106_1, x_107_1, x_108_1, x_109_1, x_110_1, x_111_1, x_112_1, x_113_1, x_114_1, x_0_2, x_1_2, x_2_2, x_3_2, x_4_2, x_5_2, x_6_2, x_7_2, x_8_2, x_9_2, x_10_2, x_11_2, x_12_2, x_13_2, x_14_2, x_15_2, x_16_2, x_17_2, x_18_2, x_19_2, x_20_2, x_21_2, x_22_2, x_23_2, x_24_2, x_25_2, x_26_2, x_27_2, x_28_2, x_29_2, x_30_2, x_31_2, x_32_2, x_33_2, x_34_2, x_35_2, x_36_2, x_37_2, x_38_2, x_39_2, x_40_2, x_41_2, x_42_2, x_43_2, x_44_2, x_45_2, x_46_2, x_47_2, x_48_2, x_49_2, x_50_2, x_51_2, x_52_2, x_53_2, x_54_2, x_55_2, x_56_2, x_57_2, x_58_2, x_59_2, x_60_2, x_61_2, x_62_2, x_63_2, x_64_2, x_65_2, x_66_2, x_67_2, x_68_2, x_69_2, x_70_2, x_71_2, x_72_2, x_73_2, x_74_2, x_75_2, x_76_2, x_77_2, x_78_2, x_79_2, x_80_2, x_81_2, x_82_2, x_83_2, x_84_2, x_85_2, x_86_2, x_87_2, x_88_2, x_89_2, x_90_2, x_91_2, x_92_2, x_93_2, x_94_2, x_95_2, x_96_2, x_97_2, x_98_2, x_99_2, x_100_2, x_101_2, x_102_2, x_103_2, x_104_2, x_105_2, x_106_2, x_107_2, x_108_2, x_109_2, x_110_2, x_111_2, x_112_2, x_113_2, x_114_2;
