model2/model2.out

Value of objective function: 2.85890000

Actual values of the variables:
x_0_0                           0
x_0_1                           1
x_0_2                           0
x_1_0                           0
x_1_1                           0
x_1_2                           0
x_2_0                           0
x_2_1                           0
x_2_2                           0
x_3_0                           0
x_3_1                           0
x_3_2                           0
x_4_0                           0
x_4_1                           0
x_4_2                           0
x_5_0                           0
x_5_1                           0
x_5_2                           0
x_6_0                           0
x_6_1                           0
x_6_2                           0
x_7_0                           0
x_7_1                           0
x_7_2                           0
x_8_0                           0
x_8_1                           0
x_8_2                           0
x_9_0                           0
x_9_1                           0
x_9_2                           0
x_10_0                          0
x_10_1                          0
x_10_2                          0
x_11_0                          0
x_11_1                          0
x_11_2                          0
x_12_0                          0
x_12_1                          0
x_12_2                          0
x_13_0                          0
x_13_1                          0
x_13_2                          0
x_14_0                          0
x_14_1                          0
x_14_2                          0
x_15_0                          0
x_15_1                          0
x_15_2                          0
x_16_0                          0
x_16_1                          0
x_16_2                          0
x_17_0                          0
x_17_1                          0
x_17_2                          0
x_18_0                          0
x_18_1                          0
x_18_2                          0
x_19_0                          0
x_19_1                          0
x_19_2                          0
x_20_0                          0
x_20_1                          0
x_20_2                          0
x_21_0                          0
x_21_1                          0
x_21_2                          0
x_22_0                          0
x_22_1                          0
x_22_2                          0
x_23_0                          0
x_23_1                          0
x_23_2                          0
x_24_0                          0
x_24_1                          0
x_24_2                          0
x_25_0                          0
x_25_1                          0
x_25_2                          0
x_26_0                          0
x_26_1                          0
x_26_2                          0
x_27_0                          0
x_27_1                          0
x_27_2                          0
x_28_0                          0
x_28_1                          0
x_28_2                          0
x_29_0                          0
x_29_1                          0
x_29_2                          0
x_30_0                          0
x_30_1                          0
x_30_2                          0
x_31_0                          0
x_31_1                          0
x_31_2                          0
x_32_0                          0
x_32_1                          0
x_32_2                          0
x_33_0                          0
x_33_1                          0
x_33_2                          0
x_34_0                          0
x_34_1                          0
x_34_2                          0
x_35_0                          0
x_35_1                          0
x_35_2                          0
x_36_0                          0
x_36_1                          0
x_36_2                          0
x_37_0                          0
x_37_1                          0
x_37_2                          0
x_38_0                          0
x_38_1                          0
x_38_2                          0
x_39_0                          0
x_39_1                          0
x_39_2                          0
x_40_0                          0
x_40_1                          0
x_40_2                          0
x_41_0                          0
x_41_1                          0
x_41_2                          0
x_42_0                          0
x_42_1                          0
x_42_2                          0
x_43_0                          0
x_43_1                          0
x_43_2                          0
x_44_0                          0
x_44_1                          0
x_44_2                          0
x_45_0                          0
x_45_1                          0
x_45_2                          0
x_46_0                          0
x_46_1                          0
x_46_2                          0
x_47_0                          0
x_47_1                          0
x_47_2                          0
x_48_0                          0
x_48_1                          0
x_48_2                          0
x_49_0                          0
x_49_1                          0
x_49_2                          0
x_50_0                          0
x_50_1                          0
x_50_2                          0
x_51_0                          0
x_51_1                          0
x_51_2                          0
x_52_0                          0
x_52_1                          0
x_52_2                          0
x_53_0                          0
x_53_1                          0
x_53_2                          0
x_54_0                          0
x_54_1                          0
x_54_2                          0
x_55_0                          0
x_55_1                          0
x_55_2                          0
x_56_0                          0
x_56_1                          0
x_56_2                          0
x_57_0                          0
x_57_1                          0
x_57_2                          0
x_58_0                          0
x_58_1                          0
x_58_2                          0
x_59_0                          0
x_59_1                          0
x_59_2                          0
x_60_0                          0
x_60_1                          1
x_60_2                          0
x_61_0                          0
x_61_1                          0
x_61_2                          0
x_62_0                          0
x_62_1                          0
x_62_2                          0
x_63_0                          0
x_63_1                          0
x_63_2                          0
x_64_0                          0
x_64_1                          0
x_64_2                          1
x_65_0                          0
x_65_1                          0
x_65_2                          0
x_66_0                          0
x_66_1                          0
x_66_2                          0
x_67_0                          0
x_67_1                          0
x_67_2                          0
x_68_0                          0
x_68_1                          0
x_68_2                          0
x_69_0                          0
x_69_1                          0
x_69_2                          0
x_70_0                          0
x_70_1                          0
x_70_2                          0
x_71_0                          0
x_71_1                          0
x_71_2                          0
x_72_0                          0
x_72_1                          0
x_72_2                          0
x_73_0                          0
x_73_1                          0
x_73_2                          0
x_74_0                          0
x_74_1                          0
x_74_2                          0
x_75_0                          0
x_75_1                          0
x_75_2                          0
x_76_0                          0
x_76_1                          0
x_76_2                          0
x_77_0                          0
x_77_1                          0
x_77_2                          0
x_78_0                          0
x_78_1                          0
x_78_2                          0
x_79_0                          0
x_79_1                          0
x_79_2                          0
x_80_0                          0
x_80_1                          0
x_80_2                          0
x_81_0                          0
x_81_1                          0
x_81_2                          0
x_82_0                          0
x_82_1                          0
x_82_2                          0
x_83_0                          0
x_83_1                          0
x_83_2                          0
x_84_0                          0
x_84_1                          0
x_84_2                          0
x_85_0                          0
x_85_1                          0
x_85_2                          0
x_86_0                          0
x_86_1                          0
x_86_2                          0
x_87_0                          0
x_87_1                          0
x_87_2                          1
x_88_0                          0
x_88_1                          0
x_88_2                          0
x_89_0                          0
x_89_1                          0
x_89_2                          0
x_90_0                          0
x_90_1                          0
x_90_2                          0
x_91_0                          0
x_91_1                          0
x_91_2                          0
x_92_0                          0
x_92_1                          0
x_92_2                          0
x_93_0                          0
x_93_1                          0
x_93_2                          0
x_94_0                          0
x_94_1                          0
x_94_2                          0
x_95_0                          0
x_95_1                          0
x_95_2                          0
x_96_0                          0
x_96_1                          0
x_96_2                          0
x_97_0                          0
x_97_1                          0
x_97_2                          0
x_98_0                          0
x_98_1                          0
x_98_2                          0
x_99_0                          0
x_99_1                          0
x_99_2                          0
x_100_0                         0
x_100_1                         0
x_100_2                         0
x_101_0                         0
x_101_1                         0
x_101_2                         0
x_102_0                         0
x_102_1                         0
x_102_2                         0
x_103_0                         0
x_103_1                         0
x_103_2                         0
x_104_0                         0
x_104_1                         0
x_104_2                         0
x_105_0                         0
x_105_1                         0
x_105_2                         0
x_106_0                         0
x_106_1                         0
x_106_2                         0
x_107_0                         1
x_107_1                         0
x_107_2                         0
x_108_0                         0
x_108_1                         0
x_108_2                         0
x_109_0                         0
x_109_1                         0
x_109_2                         0
x_110_0                         0
x_110_1                         0
x_110_2                         0
x_111_0                         0
x_111_1                         0
x_111_2                         0
x_112_0                         0
x_112_1                         0
x_112_2                         0
x_113_0                         0
x_113_1                         0
x_113_2                         0
x_114_0                         0
x_114_1                         0
x_114_2                         0
